n = 7;
n2 = 18;
n3 = 54;
match12 = [|
77, 77, 85, 86, 89, 83, 83, 77, 79, 83, 81, 89, 87, 85, 81, 89, 77, 10|
76, 76, 88, 81, 81, 78, 79, 76, 88, 88, 0, 89, 87, 81, 85, 79, 76, 76|
85, 85, 19, 81, 52, 56, 52, 85, 52, 85, 89, 0, 52, 56, 52, 54, 85, 81|
81, 81, 54, 77, 19, 15, 19, 81, 50, 88, 73, 56, 19, 15, 19, 18, 81, 81|
100, 100, 81, 0, 78, 74, 75, 100, 79, 14, 81, 81, 74, 77, 78, 75, 100, 93|
0, 0, 85, 100, 85, 83, 88, 0, 83, 88, 76, 85, 87, 85, 81, 82, 0, 85|
83, 83, 46, 79, 44, 50, 46, 83, 0, 96, 88, 52, 50, 42, 41, 46, 83, 83|];
match23 = [|
83, 0, 88, 0, 13, 88, 85, 80, 0, 0, 13, 81, 0, 85, 0, 13, 87, 0, 80, 0, 13, 0, 81, 0, 84, 0, 81, 0, 0, 0, 83, 0, 88, 0, 83, 100, 0, 71, 81, 80, 84, 13, 0, 0, 18, 88, 84, 88, 13, 84, 13, 85, 0, 87|
83, 0, 88, 0, 13, 88, 85, 80, 0, 0, 13, 81, 0, 85, 0, 13, 87, 0, 80, 0, 13, 0, 81, 0, 84, 0, 81, 0, 0, 0, 83, 0, 88, 0, 83, 100, 0, 71, 81, 80, 84, 13, 0, 0, 18, 88, 84, 88, 13, 84, 13, 85, 0, 87|
10, 85, 23, 85, 81, 50, 81, 46, 85, 85, 81, 54, 85, 52, 85, 81, 50, 85, 46, 85, 81, 85, 46, 85, 50, 85, 54, 85, 85, 85, 50, 85, 71, 85, 46, 81, 85, 88, 52, 46, 50, 81, 85, 85, 82, 50, 46, 50, 81, 54, 81, 92, 85, 46|
72, 100, 81, 100, 86, 75, 93, 76, 100, 100, 86, 77, 100, 78, 100, 86, 74, 100, 76, 100, 86, 100, 77, 100, 76, 100, 77, 100, 100, 100, 74, 100, 83, 100, 75, 0, 100, 81, 78, 76, 72, 86, 100, 100, 82, 75, 76, 75, 86, 76, 86, 19, 100, 74|
41, 85, 52, 85, 78, 22, 78, 26, 85, 85, 78, 19, 85, 0, 85, 78, 19, 85, 26, 85, 78, 85, 26, 85, 2, 85, 11, 85, 85, 85, 22, 85, 71, 85, 26, 78, 85, 85, 22, 26, 19, 78, 85, 85, 82, 22, 26, 22, 78, 26, 78, 93, 85, 22|
43, 83, 50, 83, 87, 12, 83, 20, 83, 83, 87, 15, 83, 22, 83, 87, 13, 83, 20, 83, 87, 83, 19, 83, 20, 83, 23, 83, 83, 83, 0, 83, 71, 83, 12, 74, 83, 83, 22, 20, 20, 87, 83, 83, 79, 12, 16, 17, 87, 16, 87, 91, 83, 13|
42, 88, 46, 88, 83, 17, 83, 20, 88, 88, 83, 19, 88, 22, 88, 83, 17, 88, 20, 88, 83, 88, 12, 88, 16, 88, 19, 88, 88, 88, 17, 88, 69, 88, 17, 75, 88, 83, 22, 20, 12, 83, 88, 88, 79, 12, 16, 8, 83, 16, 83, 92, 88, 17|
83, 0, 88, 0, 13, 88, 85, 80, 0, 0, 13, 81, 0, 85, 0, 13, 87, 0, 80, 0, 13, 0, 81, 0, 84, 0, 81, 0, 0, 0, 83, 0, 88, 0, 83, 100, 0, 71, 81, 80, 84, 13, 0, 0, 18, 88, 84, 88, 13, 84, 13, 85, 0, 87|
38, 83, 46, 83, 83, 46, 83, 48, 83, 83, 83, 50, 83, 44, 83, 83, 50, 83, 48, 83, 83, 83, 42, 83, 48, 83, 50, 83, 83, 83, 50, 83, 14, 83, 50, 79, 83, 83, 41, 48, 44, 83, 83, 83, 79, 50, 52, 46, 83, 44, 83, 96, 83, 50|
88, 88, 85, 88, 92, 92, 83, 88, 88, 88, 92, 88, 88, 89, 88, 92, 92, 88, 88, 88, 92, 88, 85, 88, 88, 88, 85, 88, 88, 88, 92, 88, 76, 88, 92, 14, 88, 88, 81, 88, 84, 92, 88, 88, 82, 92, 88, 88, 92, 88, 92, 25, 88, 92|
76, 76, 85, 76, 90, 79, 76, 84, 76, 76, 90, 73, 76, 81, 76, 90, 87, 76, 84, 76, 90, 76, 77, 76, 80, 76, 73, 76, 76, 76, 78, 76, 81, 76, 83, 81, 76, 19, 85, 84, 84, 90, 76, 76, 75, 75, 84, 79, 90, 84, 90, 90, 76, 87|
11, 85, 19, 85, 81, 56, 81, 48, 85, 85, 81, 56, 85, 52, 85, 81, 52, 85, 48, 85, 81, 85, 56, 85, 52, 85, 56, 85, 85, 85, 56, 85, 69, 85, 52, 81, 85, 85, 52, 48, 52, 81, 85, 85, 86, 52, 52, 56, 81, 56, 81, 93, 85, 52|
43, 87, 54, 87, 83, 17, 78, 16, 87, 87, 83, 19, 87, 19, 87, 83, 0, 87, 16, 87, 83, 87, 23, 87, 16, 87, 19, 87, 87, 87, 13, 87, 71, 87, 17, 74, 87, 83, 19, 16, 20, 83, 87, 87, 75, 12, 20, 17, 83, 20, 83, 91, 87, 4|
46, 85, 50, 85, 77, 19, 85, 19, 85, 85, 77, 15, 85, 26, 85, 77, 19, 85, 19, 85, 77, 85, 15, 85, 19, 85, 23, 85, 85, 85, 23, 85, 69, 85, 23, 77, 85, 81, 19, 19, 19, 77, 85, 85, 79, 12, 23, 12, 77, 15, 77, 92, 85, 19|
48, 81, 48, 81, 74, 22, 81, 22, 81, 81, 74, 19, 81, 22, 81, 74, 19, 81, 22, 81, 74, 81, 22, 81, 22, 81, 26, 81, 81, 81, 22, 81, 69, 81, 22, 78, 81, 85, 0, 22, 22, 74, 81, 81, 79, 26, 26, 22, 74, 19, 74, 93, 81, 19|
50, 82, 54, 82, 75, 25, 79, 29, 82, 82, 75, 18, 82, 21, 82, 75, 6, 82, 29, 82, 75, 82, 25, 82, 21, 82, 25, 82, 82, 82, 21, 82, 74, 82, 25, 75, 82, 82, 21, 29, 25, 75, 82, 82, 82, 25, 25, 25, 75, 25, 75, 93, 82, 21|
83, 0, 88, 0, 13, 88, 85, 80, 0, 0, 13, 81, 0, 85, 0, 13, 87, 0, 80, 0, 13, 0, 81, 0, 84, 0, 81, 0, 0, 0, 83, 0, 88, 0, 83, 100, 0, 71, 81, 80, 84, 13, 0, 0, 18, 88, 84, 88, 13, 84, 13, 85, 0, 87|
83, 85, 85, 85, 86, 83, 0, 84, 85, 85, 86, 81, 85, 78, 85, 86, 78, 85, 84, 85, 86, 85, 85, 85, 80, 85, 81, 85, 85, 85, 83, 85, 83, 85, 83, 93, 85, 76, 81, 84, 80, 86, 85, 85, 82, 83, 84, 83, 86, 84, 86, 92, 85, 83|];
match31 = [|
83, 76, 11, 50, 72, 83, 38, 100, 100, 100, 100, 100, 100, 100, 100, 100, 100, 100, 100, 100, 100, 100, 100, 100, 100, 100, 100, 100, 100, 100, 100, 100, 100, 100, 100, 100, 100, 100, 100, 100, 100, 100, 100, 100, 100, 100, 100, 100, 100, 100, 100, 100, 100, 100|
77, 76, 85, 81, 100, 0, 83, 100, 100, 100, 100, 100, 100, 100, 100, 100, 100, 100, 100, 100, 100, 100, 100, 100, 100, 100, 100, 100, 100, 100, 100, 100, 100, 100, 100, 100, 100, 100, 100, 100, 100, 100, 100, 100, 100, 100, 100, 100, 100, 100, 100, 100, 100, 100|
81, 85, 19, 54, 81, 88, 46, 100, 100, 100, 100, 100, 100, 100, 100, 100, 100, 100, 100, 100, 100, 100, 100, 100, 100, 100, 100, 100, 100, 100, 100, 100, 100, 100, 100, 100, 100, 100, 100, 100, 100, 100, 100, 100, 100, 100, 100, 100, 100, 100, 100, 100, 100, 100|
77, 76, 85, 81, 100, 0, 83, 100, 100, 100, 100, 100, 100, 100, 100, 100, 100, 100, 100, 100, 100, 100, 100, 100, 100, 100, 100, 100, 100, 100, 100, 100, 100, 100, 100, 100, 100, 100, 100, 100, 100, 100, 100, 100, 100, 100, 100, 100, 100, 100, 100, 100, 100, 100|
86, 90, 81, 73, 86, 13, 83, 100, 100, 100, 100, 100, 100, 100, 100, 100, 100, 100, 100, 100, 100, 100, 100, 100, 100, 100, 100, 100, 100, 100, 100, 100, 100, 100, 100, 100, 100, 100, 100, 100, 100, 100, 100, 100, 100, 100, 100, 100, 100, 100, 100, 100, 100, 100|
83, 79, 56, 19, 75, 88, 46, 100, 100, 100, 100, 100, 100, 100, 100, 100, 100, 100, 100, 100, 100, 100, 100, 100, 100, 100, 100, 100, 100, 100, 100, 100, 100, 100, 100, 100, 100, 100, 100, 100, 100, 100, 100, 100, 100, 100, 100, 100, 100, 100, 100, 100, 100, 100|
10, 76, 81, 81, 93, 85, 83, 100, 100, 100, 100, 100, 100, 100, 100, 100, 100, 100, 100, 100, 100, 100, 100, 100, 100, 100, 100, 100, 100, 100, 100, 100, 100, 100, 100, 100, 100, 100, 100, 100, 100, 100, 100, 100, 100, 100, 100, 100, 100, 100, 100, 100, 100, 100|
88, 84, 48, 19, 76, 80, 48, 100, 100, 100, 100, 100, 100, 100, 100, 100, 100, 100, 100, 100, 100, 100, 100, 100, 100, 100, 100, 100, 100, 100, 100, 100, 100, 100, 100, 100, 100, 100, 100, 100, 100, 100, 100, 100, 100, 100, 100, 100, 100, 100, 100, 100, 100, 100|
77, 76, 85, 81, 100, 0, 83, 100, 100, 100, 100, 100, 100, 100, 100, 100, 100, 100, 100, 100, 100, 100, 100, 100, 100, 100, 100, 100, 100, 100, 100, 100, 100, 100, 100, 100, 100, 100, 100, 100, 100, 100, 100, 100, 100, 100, 100, 100, 100, 100, 100, 100, 100, 100|
77, 76, 85, 81, 100, 0, 83, 100, 100, 100, 100, 100, 100, 100, 100, 100, 100, 100, 100, 100, 100, 100, 100, 100, 100, 100, 100, 100, 100, 100, 100, 100, 100, 100, 100, 100, 100, 100, 100, 100, 100, 100, 100, 100, 100, 100, 100, 100, 100, 100, 100, 100, 100, 100|
86, 90, 81, 73, 86, 13, 83, 100, 100, 100, 100, 100, 100, 100, 100, 100, 100, 100, 100, 100, 100, 100, 100, 100, 100, 100, 100, 100, 100, 100, 100, 100, 100, 100, 100, 100, 100, 100, 100, 100, 100, 100, 100, 100, 100, 100, 100, 100, 100, 100, 100, 100, 100, 100|
88, 73, 56, 0, 77, 81, 50, 100, 100, 100, 100, 100, 100, 100, 100, 100, 100, 100, 100, 100, 100, 100, 100, 100, 100, 100, 100, 100, 100, 100, 100, 100, 100, 100, 100, 100, 100, 100, 100, 100, 100, 100, 100, 100, 100, 100, 100, 100, 100, 100, 100, 100, 100, 100|
77, 76, 85, 81, 100, 0, 83, 100, 100, 100, 100, 100, 100, 100, 100, 100, 100, 100, 100, 100, 100, 100, 100, 100, 100, 100, 100, 100, 100, 100, 100, 100, 100, 100, 100, 100, 100, 100, 100, 100, 100, 100, 100, 100, 100, 100, 100, 100, 100, 100, 100, 100, 100, 100|
89, 81, 52, 19, 78, 85, 44, 100, 100, 100, 100, 100, 100, 100, 100, 100, 100, 100, 100, 100, 100, 100, 100, 100, 100, 100, 100, 100, 100, 100, 100, 100, 100, 100, 100, 100, 100, 100, 100, 100, 100, 100, 100, 100, 100, 100, 100, 100, 100, 100, 100, 100, 100, 100|
77, 76, 85, 81, 100, 0, 83, 100, 100, 100, 100, 100, 100, 100, 100, 100, 100, 100, 100, 100, 100, 100, 100, 100, 100, 100, 100, 100, 100, 100, 100, 100, 100, 100, 100, 100, 100, 100, 100, 100, 100, 100, 100, 100, 100, 100, 100, 100, 100, 100, 100, 100, 100, 100|
86, 90, 81, 73, 86, 13, 83, 100, 100, 100, 100, 100, 100, 100, 100, 100, 100, 100, 100, 100, 100, 100, 100, 100, 100, 100, 100, 100, 100, 100, 100, 100, 100, 100, 100, 100, 100, 100, 100, 100, 100, 100, 100, 100, 100, 100, 100, 100, 100, 100, 100, 100, 100, 100|
87, 87, 52, 19, 74, 87, 50, 100, 100, 100, 100, 100, 100, 100, 100, 100, 100, 100, 100, 100, 100, 100, 100, 100, 100, 100, 100, 100, 100, 100, 100, 100, 100, 100, 100, 100, 100, 100, 100, 100, 100, 100, 100, 100, 100, 100, 100, 100, 100, 100, 100, 100, 100, 100|
77, 76, 85, 81, 100, 0, 83, 100, 100, 100, 100, 100, 100, 100, 100, 100, 100, 100, 100, 100, 100, 100, 100, 100, 100, 100, 100, 100, 100, 100, 100, 100, 100, 100, 100, 100, 100, 100, 100, 100, 100, 100, 100, 100, 100, 100, 100, 100, 100, 100, 100, 100, 100, 100|
88, 84, 48, 19, 76, 80, 48, 100, 100, 100, 100, 100, 100, 100, 100, 100, 100, 100, 100, 100, 100, 100, 100, 100, 100, 100, 100, 100, 100, 100, 100, 100, 100, 100, 100, 100, 100, 100, 100, 100, 100, 100, 100, 100, 100, 100, 100, 100, 100, 100, 100, 100, 100, 100|
77, 76, 85, 81, 100, 0, 83, 100, 100, 100, 100, 100, 100, 100, 100, 100, 100, 100, 100, 100, 100, 100, 100, 100, 100, 100, 100, 100, 100, 100, 100, 100, 100, 100, 100, 100, 100, 100, 100, 100, 100, 100, 100, 100, 100, 100, 100, 100, 100, 100, 100, 100, 100, 100|
86, 90, 81, 73, 86, 13, 83, 100, 100, 100, 100, 100, 100, 100, 100, 100, 100, 100, 100, 100, 100, 100, 100, 100, 100, 100, 100, 100, 100, 100, 100, 100, 100, 100, 100, 100, 100, 100, 100, 100, 100, 100, 100, 100, 100, 100, 100, 100, 100, 100, 100, 100, 100, 100|
77, 76, 85, 81, 100, 0, 83, 100, 100, 100, 100, 100, 100, 100, 100, 100, 100, 100, 100, 100, 100, 100, 100, 100, 100, 100, 100, 100, 100, 100, 100, 100, 100, 100, 100, 100, 100, 100, 100, 100, 100, 100, 100, 100, 100, 100, 100, 100, 100, 100, 100, 100, 100, 100|
81, 77, 56, 19, 77, 81, 42, 100, 100, 100, 100, 100, 100, 100, 100, 100, 100, 100, 100, 100, 100, 100, 100, 100, 100, 100, 100, 100, 100, 100, 100, 100, 100, 100, 100, 100, 100, 100, 100, 100, 100, 100, 100, 100, 100, 100, 100, 100, 100, 100, 100, 100, 100, 100|
77, 76, 85, 81, 100, 0, 83, 100, 100, 100, 100, 100, 100, 100, 100, 100, 100, 100, 100, 100, 100, 100, 100, 100, 100, 100, 100, 100, 100, 100, 100, 100, 100, 100, 100, 100, 100, 100, 100, 100, 100, 100, 100, 100, 100, 100, 100, 100, 100, 100, 100, 100, 100, 100|
88, 80, 52, 15, 76, 84, 48, 100, 100, 100, 100, 100, 100, 100, 100, 100, 100, 100, 100, 100, 100, 100, 100, 100, 100, 100, 100, 100, 100, 100, 100, 100, 100, 100, 100, 100, 100, 100, 100, 100, 100, 100, 100, 100, 100, 100, 100, 100, 100, 100, 100, 100, 100, 100|
77, 76, 85, 81, 100, 0, 83, 100, 100, 100, 100, 100, 100, 100, 100, 100, 100, 100, 100, 100, 100, 100, 100, 100, 100, 100, 100, 100, 100, 100, 100, 100, 100, 100, 100, 100, 100, 100, 100, 100, 100, 100, 100, 100, 100, 100, 100, 100, 100, 100, 100, 100, 100, 100|
88, 73, 56, 19, 77, 81, 50, 100, 100, 100, 100, 100, 100, 100, 100, 100, 100, 100, 100, 100, 100, 100, 100, 100, 100, 100, 100, 100, 100, 100, 100, 100, 100, 100, 100, 100, 100, 100, 100, 100, 100, 100, 100, 100, 100, 100, 100, 100, 100, 100, 100, 100, 100, 100|
77, 76, 85, 81, 100, 0, 83, 100, 100, 100, 100, 100, 100, 100, 100, 100, 100, 100, 100, 100, 100, 100, 100, 100, 100, 100, 100, 100, 100, 100, 100, 100, 100, 100, 100, 100, 100, 100, 100, 100, 100, 100, 100, 100, 100, 100, 100, 100, 100, 100, 100, 100, 100, 100|
77, 76, 85, 81, 100, 0, 83, 100, 100, 100, 100, 100, 100, 100, 100, 100, 100, 100, 100, 100, 100, 100, 100, 100, 100, 100, 100, 100, 100, 100, 100, 100, 100, 100, 100, 100, 100, 100, 100, 100, 100, 100, 100, 100, 100, 100, 100, 100, 100, 100, 100, 100, 100, 100|
77, 76, 85, 81, 100, 0, 83, 100, 100, 100, 100, 100, 100, 100, 100, 100, 100, 100, 100, 100, 100, 100, 100, 100, 100, 100, 100, 100, 100, 100, 100, 100, 100, 100, 100, 100, 100, 100, 100, 100, 100, 100, 100, 100, 100, 100, 100, 100, 100, 100, 100, 100, 100, 100|
83, 78, 56, 15, 74, 83, 50, 100, 100, 100, 100, 100, 100, 100, 100, 100, 100, 100, 100, 100, 100, 100, 100, 100, 100, 100, 100, 100, 100, 100, 100, 100, 100, 100, 100, 100, 100, 100, 100, 100, 100, 100, 100, 100, 100, 100, 100, 100, 100, 100, 100, 100, 100, 100|
77, 76, 85, 81, 100, 0, 83, 100, 100, 100, 100, 100, 100, 100, 100, 100, 100, 100, 100, 100, 100, 100, 100, 100, 100, 100, 100, 100, 100, 100, 100, 100, 100, 100, 100, 100, 100, 100, 100, 100, 100, 100, 100, 100, 100, 100, 100, 100, 100, 100, 100, 100, 100, 100|
86, 81, 69, 74, 83, 88, 14, 100, 100, 100, 100, 100, 100, 100, 100, 100, 100, 100, 100, 100, 100, 100, 100, 100, 100, 100, 100, 100, 100, 100, 100, 100, 100, 100, 100, 100, 100, 100, 100, 100, 100, 100, 100, 100, 100, 100, 100, 100, 100, 100, 100, 100, 100, 100|
77, 76, 85, 81, 100, 0, 83, 100, 100, 100, 100, 100, 100, 100, 100, 100, 100, 100, 100, 100, 100, 100, 100, 100, 100, 100, 100, 100, 100, 100, 100, 100, 100, 100, 100, 100, 100, 100, 100, 100, 100, 100, 100, 100, 100, 100, 100, 100, 100, 100, 100, 100, 100, 100|
88, 83, 52, 19, 75, 83, 50, 100, 100, 100, 100, 100, 100, 100, 100, 100, 100, 100, 100, 100, 100, 100, 100, 100, 100, 100, 100, 100, 100, 100, 100, 100, 100, 100, 100, 100, 100, 100, 100, 100, 100, 100, 100, 100, 100, 100, 100, 100, 100, 100, 100, 100, 100, 100|
86, 81, 81, 77, 0, 100, 79, 100, 100, 100, 100, 100, 100, 100, 100, 100, 100, 100, 100, 100, 100, 100, 100, 100, 100, 100, 100, 100, 100, 100, 100, 100, 100, 100, 100, 100, 100, 100, 100, 100, 100, 100, 100, 100, 100, 100, 100, 100, 100, 100, 100, 100, 100, 100|
77, 76, 85, 81, 100, 0, 83, 100, 100, 100, 100, 100, 100, 100, 100, 100, 100, 100, 100, 100, 100, 100, 100, 100, 100, 100, 100, 100, 100, 100, 100, 100, 100, 100, 100, 100, 100, 100, 100, 100, 100, 100, 100, 100, 100, 100, 100, 100, 100, 100, 100, 100, 100, 100|
81, 19, 85, 81, 81, 71, 83, 100, 100, 100, 100, 100, 100, 100, 100, 100, 100, 100, 100, 100, 100, 100, 100, 100, 100, 100, 100, 100, 100, 100, 100, 100, 100, 100, 100, 100, 100, 100, 100, 100, 100, 100, 100, 100, 100, 100, 100, 100, 100, 100, 100, 100, 100, 100|
81, 85, 52, 19, 78, 81, 41, 100, 100, 100, 100, 100, 100, 100, 100, 100, 100, 100, 100, 100, 100, 100, 100, 100, 100, 100, 100, 100, 100, 100, 100, 100, 100, 100, 100, 100, 100, 100, 100, 100, 100, 100, 100, 100, 100, 100, 100, 100, 100, 100, 100, 100, 100, 100|
88, 84, 48, 19, 76, 80, 48, 100, 100, 100, 100, 100, 100, 100, 100, 100, 100, 100, 100, 100, 100, 100, 100, 100, 100, 100, 100, 100, 100, 100, 100, 100, 100, 100, 100, 100, 100, 100, 100, 100, 100, 100, 100, 100, 100, 100, 100, 100, 100, 100, 100, 100, 100, 100|
84, 84, 52, 19, 72, 84, 44, 100, 100, 100, 100, 100, 100, 100, 100, 100, 100, 100, 100, 100, 100, 100, 100, 100, 100, 100, 100, 100, 100, 100, 100, 100, 100, 100, 100, 100, 100, 100, 100, 100, 100, 100, 100, 100, 100, 100, 100, 100, 100, 100, 100, 100, 100, 100|
86, 90, 81, 73, 86, 13, 83, 100, 100, 100, 100, 100, 100, 100, 100, 100, 100, 100, 100, 100, 100, 100, 100, 100, 100, 100, 100, 100, 100, 100, 100, 100, 100, 100, 100, 100, 100, 100, 100, 100, 100, 100, 100, 100, 100, 100, 100, 100, 100, 100, 100, 100, 100, 100|
77, 76, 85, 81, 100, 0, 83, 100, 100, 100, 100, 100, 100, 100, 100, 100, 100, 100, 100, 100, 100, 100, 100, 100, 100, 100, 100, 100, 100, 100, 100, 100, 100, 100, 100, 100, 100, 100, 100, 100, 100, 100, 100, 100, 100, 100, 100, 100, 100, 100, 100, 100, 100, 100|
77, 76, 85, 81, 100, 0, 83, 100, 100, 100, 100, 100, 100, 100, 100, 100, 100, 100, 100, 100, 100, 100, 100, 100, 100, 100, 100, 100, 100, 100, 100, 100, 100, 100, 100, 100, 100, 100, 100, 100, 100, 100, 100, 100, 100, 100, 100, 100, 100, 100, 100, 100, 100, 100|
82, 75, 86, 75, 82, 18, 79, 100, 100, 100, 100, 100, 100, 100, 100, 100, 100, 100, 100, 100, 100, 100, 100, 100, 100, 100, 100, 100, 100, 100, 100, 100, 100, 100, 100, 100, 100, 100, 100, 100, 100, 100, 100, 100, 100, 100, 100, 100, 100, 100, 100, 100, 100, 100|
88, 75, 52, 15, 75, 88, 50, 100, 100, 100, 100, 100, 100, 100, 100, 100, 100, 100, 100, 100, 100, 100, 100, 100, 100, 100, 100, 100, 100, 100, 100, 100, 100, 100, 100, 100, 100, 100, 100, 100, 100, 100, 100, 100, 100, 100, 100, 100, 100, 100, 100, 100, 100, 100|
84, 84, 52, 19, 76, 84, 52, 100, 100, 100, 100, 100, 100, 100, 100, 100, 100, 100, 100, 100, 100, 100, 100, 100, 100, 100, 100, 100, 100, 100, 100, 100, 100, 100, 100, 100, 100, 100, 100, 100, 100, 100, 100, 100, 100, 100, 100, 100, 100, 100, 100, 100, 100, 100|
83, 79, 56, 19, 75, 88, 46, 100, 100, 100, 100, 100, 100, 100, 100, 100, 100, 100, 100, 100, 100, 100, 100, 100, 100, 100, 100, 100, 100, 100, 100, 100, 100, 100, 100, 100, 100, 100, 100, 100, 100, 100, 100, 100, 100, 100, 100, 100, 100, 100, 100, 100, 100, 100|
86, 90, 81, 73, 86, 13, 83, 100, 100, 100, 100, 100, 100, 100, 100, 100, 100, 100, 100, 100, 100, 100, 100, 100, 100, 100, 100, 100, 100, 100, 100, 100, 100, 100, 100, 100, 100, 100, 100, 100, 100, 100, 100, 100, 100, 100, 100, 100, 100, 100, 100, 100, 100, 100|
84, 84, 56, 19, 76, 84, 44, 100, 100, 100, 100, 100, 100, 100, 100, 100, 100, 100, 100, 100, 100, 100, 100, 100, 100, 100, 100, 100, 100, 100, 100, 100, 100, 100, 100, 100, 100, 100, 100, 100, 100, 100, 100, 100, 100, 100, 100, 100, 100, 100, 100, 100, 100, 100|
86, 90, 81, 73, 86, 13, 83, 100, 100, 100, 100, 100, 100, 100, 100, 100, 100, 100, 100, 100, 100, 100, 100, 100, 100, 100, 100, 100, 100, 100, 100, 100, 100, 100, 100, 100, 100, 100, 100, 100, 100, 100, 100, 100, 100, 100, 100, 100, 100, 100, 100, 100, 100, 100|
89, 90, 93, 92, 19, 85, 96, 100, 100, 100, 100, 100, 100, 100, 100, 100, 100, 100, 100, 100, 100, 100, 100, 100, 100, 100, 100, 100, 100, 100, 100, 100, 100, 100, 100, 100, 100, 100, 100, 100, 100, 100, 100, 100, 100, 100, 100, 100, 100, 100, 100, 100, 100, 100|
77, 76, 85, 81, 100, 0, 83, 100, 100, 100, 100, 100, 100, 100, 100, 100, 100, 100, 100, 100, 100, 100, 100, 100, 100, 100, 100, 100, 100, 100, 100, 100, 100, 100, 100, 100, 100, 100, 100, 100, 100, 100, 100, 100, 100, 100, 100, 100, 100, 100, 100, 100, 100, 100|
87, 87, 52, 19, 74, 87, 50, 100, 100, 100, 100, 100, 100, 100, 100, 100, 100, 100, 100, 100, 100, 100, 100, 100, 100, 100, 100, 100, 100, 100, 100, 100, 100, 100, 100, 100, 100, 100, 100, 100, 100, 100, 100, 100, 100, 100, 100, 100, 100, 100, 100, 100, 100, 100|];
